GLPSOL--GLPK LP/MIP Solver 5.0
Parameter(s) specified in the command line:
 --noscale --log warehouse.log --write C:\Users\WX847\AppData\Local\Temp\tmpvmsrfww8.glpk.raw
 --wglp C:\Users\WX847\AppData\Local\Temp\tmpi83ykw6e.glpk.glp --cpxlp C:\Users\WX847\AppData\Local\Temp\tmp2n2zodif.pyomo.lp
Reading problem data from 'C:\Users\WX847\AppData\Local\Temp\tmp2n2zodif.pyomo.lp'...
C:\Users\WX847\AppData\Local\Temp\tmp2n2zodif.pyomo.lp:130: warning: lower bound of variable 'x13' redefined
C:\Users\WX847\AppData\Local\Temp\tmp2n2zodif.pyomo.lp:130: warning: upper bound of variable 'x13' redefined
18 rows, 16 columns, 40 non-zeros
3 integer variables, all of which are binary
133 lines were read
Writing problem data to 'C:\Users\WX847\AppData\Local\Temp\tmpi83ykw6e.glpk.glp'...
120 lines were written
GLPK Integer Optimizer 5.0
18 rows, 16 columns, 40 non-zeros
3 integer variables, all of which are binary
Preprocessing...
1 hidden covering inequaliti(es) were detected
17 rows, 15 columns, 39 non-zeros
3 integer variables, all of which are binary
Scaling...
 A: min|aij| =  1.000e+00  max|aij| =  1.000e+00  ratio =  1.000e+00
Problem data seem to be well scaled
Constructing initial basis...
Size of triangular part is 17
Solving LP relaxation...
GLPK Simplex Optimizer 5.0
17 rows, 15 columns, 39 non-zeros
      0: obj =   4.423000000e+03 inf =   4.000e+00 (4)
      3: obj =   5.302000000e+03 inf =   0.000e+00 (0)
*    12: obj =   2.745000000e+03 inf =   0.000e+00 (0)
OPTIMAL LP SOLUTION FOUND
Integer optimization begins...
Long-step dual simplex will be used
+    12: mip =     not found yet >=              -inf        (1; 0)
+    12: >>>>>   2.745000000e+03 >=   2.745000000e+03   0.0% (1; 0)
+    12: mip =   2.745000000e+03 >=     tree is empty   0.0% (0; 1)
INTEGER OPTIMAL SOLUTION FOUND
Time used:   0.0 secs
Memory used: 0.1 Mb (69937 bytes)
Writing MIP solution to 'C:\Users\WX847\AppData\Local\Temp\tmpvmsrfww8.glpk.raw'...
43 lines were written
